
Route #1: 17 40 25 28 27 31 43 20 
Route #2: 5 41 37 34 13 32 19 29 18 
Route #3: 35 15 33 12 36 14 39 11 9 
Route #4: 7 4 42 30 22 38 
Route #5: 16 21 26 24 2 6 
Route #6: 23 10 8 
Route #7: 1 3 
cost 1152.43
total time is 4.8